NAME : A036-18f.5296.tour
COMMENT : Cost = 0_5296
COMMENT : Found by LKH [Keld Helsgaun] Tue Sep 12 09:35:03 2017
TYPE : TOUR
DIMENSION : 53
TOUR_SECTION
1
42
34
19
36
31
24
51
3
39
13
8
45
5
7
49
15
28
52
29
32
46
6
35
37
14
12
43
33
30
47
10
2
44
26
18
11
50
17
16
41
27
25
53
4
40
20
21
38
22
23
48
9
-1
EOF
